n_res = 4;
rcap = [27, 28, 206, 194];
rtype = [1, 1, 2, 2];
n_tasks = 30;
modes = [ {1, 2, 3}, {4, 5, 6}, {7, 8, 9}, {10, 11, 12}, {13, 14, 15}, {16, 17, 18}, {19, 20, 21}, {22, 23, 24}, {25, 26, 27}, {28, 29, 30}, {31, 32, 33}, {34, 35, 36}, {37, 38, 39}, {40, 41, 42}, {43, 44, 45}, {46, 47, 48}, {49, 50, 51}, {52, 53, 54}, {55, 56, 57}, {58, 59, 60}, {61, 62, 63}, {64, 65, 66}, {67, 68, 69}, {70, 71, 72}, {73, 74, 75}, {76, 77, 78}, {79, 80, 81}, {82, 83, 84}, {85, 86, 87}, {88, 89, 90} ];
succ = [ {5, 6, 15}, {4}, {10, 15, 25}, {7, 8, 25}, {22, 25}, {8}, {9, 11, 14}, {17, 24, 27}, {12, 13, 26}, {19, 20}, {12, 15, 20}, {18, 23, 28}, {20}, {28}, {16, 19, 27}, {26}, {18, 21}, {29, 30}, {21, 24}, {22}, {23, 26}, {23}, {30}, {29}, {27, 30}, {28}, {29}, {}, {}, {} ];
n_opt = 90;
dur = [2, 6, 9, 5, 5, 7, 1, 6, 9, 4, 4, 5, 2, 10, 10, 2, 4, 7, 2, 3, 5, 4, 5, 8, 1, 7, 8, 4, 7, 10, 3, 6, 10, 1, 8, 10, 2, 6, 8, 1, 2, 7, 4, 6, 9, 4, 9, 9, 1, 2, 5, 8, 10, 10, 5, 6, 10, 3, 4, 10, 1, 7, 8, 1, 2, 9, 1, 5, 8, 2, 4, 10, 3, 7, 8, 5, 8, 9, 1, 3, 3, 2, 7, 10, 2, 5, 7, 1, 3, 4];
rreq = [|  6,  4,  2,  6,  7,  3,  4,  2,  2,  6,  4,  4,  7,  7,  7,  9,  8,  8,  4,  2,  2, 10,  6,  4,  5,  3,  3,  9,  7,  4,  7,  6,  6,  7,  7,  6,  8,  8,  8,  3,  2,  2,  3,  2,  1,  6,  4,  4,  9,  8,  8,  4,  1,  3,  6,  6,  4,  7,  7,  6, 10, 10, 10,  7,  6,  4,  7,  5,  3,  7,  4,  3,  4,  4,  3,  7,  5,  5,  6,  4,  3,  6,  4,  4,  5,  3,  2, 10,  5,  4
        | 10, 10, 10,  8,  9,  6,  8,  4,  1,  6,  5,  5,  7,  6,  7,  5,  5,  3,  9,  7,  5,  8,  7,  7,  7,  6,  6,  9,  5,  3,  3,  3,  3, 10, 10,  9,  5,  4,  4,  7,  6,  6,  7,  6,  5,  8,  7,  3,  8,  6,  5,  5,  5,  4,  3,  2,  2,  9,  8,  6,  8,  8,  6,  5,  4,  3,  7,  6,  1,  9,  9,  8,  9,  8,  4,  4,  3,  3,  8,  8,  8,  5,  5,  1, 10, 10,  9,  7,  5,  5
        | 10, 10,  9,  8,  6,  6,  9,  9,  8,  8,  9,  4,  5,  4,  2,  9,  4,  2,  9,  7,  6,  7,  4,  4,  7,  6,  6,  6,  4,  3, 10,  7,  6,  8,  5,  5,  6,  6,  3,  2,  2,  1,  5,  3,  3,  8,  4,  6,  6,  5,  5,  7,  2,  5,  7,  7,  7,  5,  4,  3,  5,  2,  2,  8,  7,  6,  8,  6,  6,  3,  2,  2,  5,  5,  5, 10, 10, 10,  8,  8,  8,  8,  5,  5,  5,  5,  5,  3,  2,  2
        |  4,  4,  3,  5,  5,  4,  2,  2,  2,  9,  9,  8, 10,  9,  9,  2,  2,  1,  9,  4,  3,  5,  3,  1,  8,  6,  2,  6,  5,  5,  7,  7,  4,  8,  7,  6,  8,  7,  2,  9,  8,  7,  4,  3,  2,  7,  7,  7,  6,  5,  5, 10, 10, 10,  5,  4,  3,  8,  5,  3,  8,  7,  6,  4,  3,  2,  6,  6,  2,  9,  9,  7,  7,  7,  6,  7,  5,  4,  2,  1,  2,  5,  5,  5,  4,  3,  2, 10,  8,  8 |];
